c ind 107 109 124 14 15 18 188 19 192 193 0
c ind 200 210 23 250 253 261 27 294 30 63 0
c ind 73 75 77 79 87 9 0
p cnf 294 1110
-1 2 0
-1 254 0
-10 -11 20 0
-10 11 31 0
-100 -23 77 0
-100 -77 23 0
-101 -102 104 0
-101 102 110 0
-102 103 0
-102 78 0
-103 100 0
-103 83 0
-104 -105 42 0
-104 105 85 0
-105 106 0
-105 108 0
-106 -107 23 0
-106 -23 107 0
-108 -109 23 0
-108 -23 109 0
-11 12 16 0
-110 -111 85 0
-110 111 113 0
-111 112 0
-111 78 0
-112 100 0
-112 91 0
-113 -114 85 0
-113 114 116 0
-114 115 0
-114 78 0
-115 100 0
-115 96 0
-116 -117 44 0
-116 117 119 0
-117 118 0
-117 70 0
-118 -23 79 0
-118 -79 23 0
-119 -120 121 0
-119 120 42 0
-12 -13 0
-120 118 0
-120 82 0
-121 -122 42 0
-121 122 85 0
-122 123 106 0
-123 -124 23 0
-123 -23 124 0
-125 -60 126 0
-125 60 130 0
-126 -29 36 0
-126 29 127 0
-127 -66 128 0
-127 66 130 0
-128 -69 36 0
-128 69 129 0
-129 -81 130 0
-129 81 155 0
-13 -14 15 0
-13 -15 14 0
-130 -37 131 0
-130 37 134 0
-131 -34 132 0
-131 34 134 0
-132 -133 0
-133 -23 87 0
-133 -87 23 0
-134 -6 135 0
-134 6 136 0
-135 -34 132 0
-135 34 136 0
-136 -60 137 0
-136 60 141 0
-137 -29 132 0
-137 29 138 0
-138 -66 139 0
-138 66 141 0
-139 -69 132 0
-139 69 140 0
-140 -81 141 0
-140 81 143 0
-141 -142 0
-142 -87 87 0
-143 -89 141 0
-143 89 144 0
-144 -94 141 0
-144 94 145 0
-145 -98 146 0
-145 98 148 0
-146 -147 0
-147 -30 87 0
-147 -87 30 0
-148 -102 149 0
-148 102 150 0
-149 -105 132 0
-149 105 141 0
-150 -111 141 0
-150 111 151 0
-151 -114 141 0
-151 114 152 0
-152 -117 146 0
-152 117 153 0
-153 -120 154 0
-153 120 132 0
-154 -122 132 0
-154 122 141 0
-155 -89 130 0
-155 89 156 0
-156 -94 130 0
-156 94 157 0
-157 -98 158 0
-157 98 179 0
-158 -37 159 0
-158 37 160 0
-159 -34 50 0
-159 34 160 0
-16 -17 0
-160 -6 161 0
-160 6 162 0
-161 -34 50 0
-161 34 162 0
-162 -60 163 0
-162 60 167 0
-163 -29 50 0
-163 29 164 0
-164 -66 165 0
-164 66 167 0
-165 -69 50 0
-165 69 166 0
-166 -81 167 0
-166 81 169 0
-167 -168 0
-168 -30 87 0
-168 -87 30 0
-169 -89 167 0
-169 89 170 0
-17 -18 19 0
-17 -19 18 0
-170 -94 167 0
-170 94 171 0
-171 -98 52 0
-171 98 172 0
-172 -102 173 0
-172 102 174 0
-173 -105 50 0
-173 105 167 0
-174 -111 167 0
-174 111 175 0
-175 -114 167 0
-175 114 176 0
-176 -117 52 0
-176 117 177 0
-177 -120 178 0
-177 120 50 0
-178 -122 50 0
-178 122 167 0
-179 -102 180 0
-179 102 181 0
-180 -105 36 0
-180 105 130 0
-181 -111 130 0
-181 111 182 0
-182 -114 130 0
-182 114 183 0
-183 -117 158 0
-183 117 184 0
-184 -120 185 0
-184 120 36 0
-185 -122 36 0
-185 122 130 0
-186 -187 0
-187 -188 188 0
-189 -190 194 0
-189 190 205 0
-190 -191 0
-191 -192 193 0
-191 -193 192 0
-194 -195 196 0
-194 195 201 0
-195 -192 23 0
-195 -23 192 0
-196 -190 197 0
-196 190 198 0
-197 -195 52 0
-197 195 50 0
-198 -199 0
-199 -200 30 0
-199 -30 200 0
-2 -3 207 0
-2 3 215 0
-20 -21 25 0
-20 21 28 0
-201 -190 202 0
-201 190 203 0
-202 -195 44 0
-202 195 42 0
-203 -204 0
-204 -200 23 0
-204 -23 200 0
-205 -206 0
-206 -200 200 0
-207 -208 209 0
-207 208 211 0
-208 -188 23 0
-208 -23 188 0
-209 -210 30 0
-209 -30 210 0
-21 22 0
-21 24 0
-211 -190 212 0
-211 190 214 0
-212 -195 209 0
-212 195 213 0
-213 -210 23 0
-213 -23 210 0
-214 -200 210 0
-214 -210 200 0
-215 -216 207 0
-215 216 233 0
-216 217 189 0
-217 218 186 0
-218 -60 219 0
-218 60 134 0
-219 -29 57 0
-219 29 220 0
-22 -18 23 0
-22 -23 18 0
-220 -66 221 0
-220 66 134 0
-221 -69 57 0
-221 69 222 0
-222 -81 134 0
-222 81 223 0
-223 -89 134 0
-223 89 224 0
-224 -94 134 0
-224 94 225 0
-225 -98 160 0
-225 98 226 0
-226 -102 227 0
-226 102 228 0
-227 -105 57 0
-227 105 134 0
-228 -111 134 0
-228 111 229 0
-229 -114 134 0
-229 114 230 0
-230 -117 160 0
-230 117 231 0
-231 -120 232 0
-231 120 57 0
-232 -122 57 0
-232 122 134 0
-233 -234 207 0
-233 234 236 0
-234 235 189 0
-235 136 186 0
-236 -237 207 0
-236 237 245 0
-237 238 239 0
-238 141 186 0
-239 -190 240 0
-239 190 205 0
-24 -14 23 0
-24 -23 14 0
-240 -195 241 0
-240 195 243 0
-241 -242 0
-242 -200 30 0
-242 -30 200 0
-243 -244 0
-244 -200 23 0
-244 -23 200 0
-245 -246 251 0
-245 246 252 0
-246 247 205 0
-247 141 248 0
-248 -249 0
-249 -188 250 0
-249 -250 188 0
-25 -26 0
-251 -208 209 0
-251 208 214 0
-252 -210 253 0
-252 -253 210 0
-254 -255 257 0
-254 255 281 0
-255 256 5 0
-256 189 186 0
-257 -208 258 0
-257 208 273 0
-258 -37 259 0
-258 37 262 0
-259 -34 260 0
-259 34 262 0
-26 -23 27 0
-26 -27 23 0
-260 -23 261 0
-260 -261 23 0
-262 -6 263 0
-262 6 264 0
-263 -34 260 0
-263 34 264 0
-264 -60 265 0
-264 60 269 0
-265 -29 260 0
-265 29 266 0
-266 -66 267 0
-266 66 269 0
-267 -69 260 0
-267 69 268 0
-268 -81 269 0
-268 81 270 0
-269 -261 87 0
-269 -87 261 0
-270 -89 269 0
-270 89 271 0
-271 -94 269 0
-271 94 272 0
-272 -98 273 0
-272 98 274 0
-273 -261 30 0
-273 -30 261 0
-274 -102 275 0
-274 102 276 0
-275 -105 260 0
-275 105 269 0
-276 -111 269 0
-276 111 277 0
-277 -114 269 0
-277 114 278 0
-278 -117 273 0
-278 117 279 0
-279 -120 280 0
-279 120 260 0
-28 -29 0
-280 -122 260 0
-280 122 269 0
-281 -282 284 0
-281 282 285 0
-282 283 218 0
-283 239 186 0
-284 -208 262 0
-284 208 273 0
-285 -286 288 0
-285 286 289 0
-286 287 136 0
-287 205 186 0
-288 -208 264 0
-288 208 273 0
-289 -290 292 0
-289 290 293 0
-29 -27 30 0
-29 -30 27 0
-290 291 141 0
-291 205 248 0
-292 -208 269 0
-292 208 273 0
-293 -261 294 0
-293 -294 261 0
-3 4 189 0
-30 0
-31 -32 0
-32 -27 27 0
-33 -34 36 0
-33 34 125 0
-34 -11 35 0
-34 11 29 0
-35 -21 30 0
-35 21 23 0
-36 -37 56 0
-36 37 57 0
-37 7 38 0
-38 -11 39 0
-38 11 31 0
-39 -21 40 0
-39 21 48 0
-4 5 186 0
-40 -11 41 0
-40 11 46 0
-41 -21 42 0
-41 21 44 0
-42 -43 0
-43 -23 23 0
-44 -45 0
-45 -23 30 0
-45 -30 23 0
-46 -47 0
-47 -23 27 0
-47 -27 23 0
-48 -11 49 0
-48 11 54 0
-49 -21 50 0
-49 21 52 0
-5 -6 33 0
-5 6 125 0
-50 -51 0
-51 -23 30 0
-51 -30 23 0
-52 -53 0
-53 -30 30 0
-54 -55 0
-55 -27 30 0
-55 -30 27 0
-56 -34 42 0
-56 34 57 0
-57 -6 58 0
-57 6 59 0
-58 -34 42 0
-58 34 59 0
-59 -60 64 0
-59 60 85 0
-6 7 10 0
-60 61 31 0
-61 -62 0
-62 -63 9 0
-62 -9 63 0
-64 -29 42 0
-64 29 65 0
-65 -66 68 0
-65 66 85 0
-66 61 0
-66 67 0
-67 -23 9 0
-67 -9 23 0
-68 -69 42 0
-68 69 80 0
-69 70 0
-69 78 0
-7 -8 0
-70 71 0
-70 76 0
-71 72 0
-71 74 0
-72 -30 73 0
-72 -73 30 0
-74 -30 75 0
-74 -75 30 0
-76 -30 77 0
-76 -77 30 0
-78 -30 79 0
-78 -79 30 0
-8 -9 9 0
-80 -81 85 0
-80 81 88 0
-81 78 0
-81 82 0
-82 76 0
-82 83 0
-83 74 0
-83 84 0
-84 -23 73 0
-84 -73 23 0
-85 -86 0
-86 -23 87 0
-86 -87 23 0
-88 -89 85 0
-88 89 93 0
-89 78 0
-89 90 0
-90 76 0
-90 91 0
-91 72 0
-91 92 0
-92 -23 75 0
-92 -75 23 0
-93 -94 85 0
-93 94 97 0
-94 78 0
-94 95 0
-95 76 0
-95 96 0
-96 84 0
-96 92 0
-97 -98 44 0
-97 98 101 0
-98 78 0
-98 99 0
-99 100 0
-99 71 0
1 -2 -254 0
1 0
10 -11 -20 0
10 -20 -31 0
10 11 -31 0
100 -77 -23 0
100 77 23 0
101 -102 -104 0
101 -104 -110 0
101 102 -110 0
102 -103 -78 0
103 -83 -100 0
104 -105 -42 0
104 -42 -85 0
104 105 -85 0
105 -106 -108 0
106 -107 -23 0
106 107 23 0
108 -109 -23 0
108 109 23 0
11 -12 0
11 -16 0
110 -111 -85 0
110 -85 -113 0
110 111 -113 0
111 -112 -78 0
112 -91 -100 0
113 -114 -85 0
113 -85 -116 0
113 114 -116 0
114 -115 -78 0
115 -96 -100 0
116 -117 -44 0
116 -44 -119 0
116 117 -119 0
117 -70 -118 0
118 -79 -23 0
118 79 23 0
119 -120 -121 0
119 -121 -42 0
119 120 -42 0
12 13 0
120 -82 -118 0
121 -122 -42 0
121 -42 -85 0
121 122 -85 0
122 -106 0
122 -123 0
123 -124 -23 0
123 124 23 0
125 -126 -130 0
125 -60 -126 0
125 60 -130 0
126 -29 -36 0
126 -36 -127 0
126 29 -127 0
127 -128 -130 0
127 -66 -128 0
127 66 -130 0
128 -36 -129 0
128 -69 -36 0
128 69 -129 0
129 -130 -155 0
129 -81 -130 0
129 81 -155 0
13 -14 -15 0
13 14 15 0
130 -131 -134 0
130 -37 -131 0
130 37 -134 0
131 -132 -134 0
131 -34 -132 0
131 34 -134 0
132 133 0
133 -87 -23 0
133 87 23 0
134 -135 -136 0
134 -6 -135 0
134 6 -136 0
135 -132 -136 0
135 -34 -132 0
135 34 -136 0
136 -137 -141 0
136 -60 -137 0
136 60 -141 0
137 -132 -138 0
137 -29 -132 0
137 29 -138 0
138 -139 -141 0
138 -66 -139 0
138 66 -141 0
139 -132 -140 0
139 -69 -132 0
139 69 -140 0
140 -141 -143 0
140 -81 -141 0
140 81 -143 0
141 142 0
142 -87 -87 0
142 87 87 0
143 -141 -144 0
143 -89 -141 0
143 89 -144 0
144 -141 -145 0
144 -94 -141 0
144 94 -145 0
145 -146 -148 0
145 -98 -146 0
145 98 -148 0
146 147 0
147 -87 -30 0
147 87 30 0
148 -102 -149 0
148 -149 -150 0
148 102 -150 0
149 -105 -132 0
149 -132 -141 0
149 105 -141 0
150 -111 -141 0
150 -141 -151 0
150 111 -151 0
151 -114 -141 0
151 -141 -152 0
151 114 -152 0
152 -117 -146 0
152 -146 -153 0
152 117 -153 0
153 -120 -154 0
153 -154 -132 0
153 120 -132 0
154 -122 -132 0
154 -132 -141 0
154 122 -141 0
155 -130 -156 0
155 -89 -130 0
155 89 -156 0
156 -130 -157 0
156 -94 -130 0
156 94 -157 0
157 -158 -179 0
157 -98 -158 0
157 98 -179 0
158 -159 -160 0
158 -37 -159 0
158 37 -160 0
159 -34 -50 0
159 -50 -160 0
159 34 -160 0
16 17 0
160 -161 -162 0
160 -6 -161 0
160 6 -162 0
161 -34 -50 0
161 -50 -162 0
161 34 -162 0
162 -163 -167 0
162 -60 -163 0
162 60 -167 0
163 -29 -50 0
163 -50 -164 0
163 29 -164 0
164 -165 -167 0
164 -66 -165 0
164 66 -167 0
165 -50 -166 0
165 -69 -50 0
165 69 -166 0
166 -167 -169 0
166 -81 -167 0
166 81 -169 0
167 168 0
168 -30 -87 0
168 30 87 0
169 -167 -170 0
169 -89 -167 0
169 89 -170 0
17 -18 -19 0
17 18 19 0
170 -167 -171 0
170 -94 -167 0
170 94 -171 0
171 -52 -172 0
171 -98 -52 0
171 98 -172 0
172 -102 -173 0
172 -173 -174 0
172 102 -174 0
173 -105 -50 0
173 -50 -167 0
173 105 -167 0
174 -111 -167 0
174 -167 -175 0
174 111 -175 0
175 -114 -167 0
175 -167 -176 0
175 114 -176 0
176 -117 -52 0
176 -52 -177 0
176 117 -177 0
177 -120 -178 0
177 -178 -50 0
177 120 -50 0
178 -122 -50 0
178 -50 -167 0
178 122 -167 0
179 -102 -180 0
179 -180 -181 0
179 102 -181 0
180 -105 -36 0
180 -36 -130 0
180 105 -130 0
181 -111 -130 0
181 -130 -182 0
181 111 -182 0
182 -114 -130 0
182 -130 -183 0
182 114 -183 0
183 -117 -158 0
183 -158 -184 0
183 117 -184 0
184 -120 -185 0
184 -185 -36 0
184 120 -36 0
185 -122 -36 0
185 -36 -130 0
185 122 -130 0
186 187 0
187 -188 -188 0
187 188 188 0
189 -190 -194 0
189 -194 -205 0
189 190 -205 0
190 191 0
191 -192 -193 0
191 192 193 0
194 -195 -196 0
194 -196 -201 0
194 195 -201 0
195 -192 -23 0
195 192 23 0
196 -190 -197 0
196 -197 -198 0
196 190 -198 0
197 -195 -52 0
197 -52 -50 0
197 195 -50 0
198 199 0
199 -30 -200 0
199 30 200 0
2 -207 -215 0
2 -3 -207 0
2 3 -215 0
20 -21 -25 0
20 -25 -28 0
20 21 -28 0
201 -190 -202 0
201 -202 -203 0
201 190 -203 0
202 -195 -44 0
202 -44 -42 0
202 195 -42 0
203 204 0
204 -23 -200 0
204 23 200 0
205 206 0
206 -200 -200 0
206 200 200 0
207 -208 -209 0
207 -209 -211 0
207 208 -211 0
208 -188 -23 0
208 188 23 0
209 -210 -30 0
209 210 30 0
21 -22 -24 0
211 -190 -212 0
211 -212 -214 0
211 190 -214 0
212 -195 -209 0
212 -209 -213 0
212 195 -213 0
213 -210 -23 0
213 210 23 0
214 -210 -200 0
214 210 200 0
215 -207 -233 0
215 -216 -207 0
215 216 -233 0
216 -189 0
216 -217 0
217 -186 0
217 -218 0
218 -219 -134 0
218 -60 -219 0
218 60 -134 0
219 -29 -57 0
219 -57 -220 0
219 29 -220 0
22 -18 -23 0
22 18 23 0
220 -221 -134 0
220 -66 -221 0
220 66 -134 0
221 -57 -222 0
221 -69 -57 0
221 69 -222 0
222 -134 -223 0
222 -81 -134 0
222 81 -223 0
223 -134 -224 0
223 -89 -134 0
223 89 -224 0
224 -134 -225 0
224 -94 -134 0
224 94 -225 0
225 -160 -226 0
225 -98 -160 0
225 98 -226 0
226 -102 -227 0
226 -227 -228 0
226 102 -228 0
227 -105 -57 0
227 -57 -134 0
227 105 -134 0
228 -111 -134 0
228 -134 -229 0
228 111 -229 0
229 -114 -134 0
229 -134 -230 0
229 114 -230 0
23 0
230 -117 -160 0
230 -160 -231 0
230 117 -231 0
231 -120 -232 0
231 -232 -57 0
231 120 -57 0
232 -122 -57 0
232 -57 -134 0
232 122 -134 0
233 -207 -236 0
233 -234 -207 0
233 234 -236 0
234 -189 0
234 -235 0
235 -136 0
235 -186 0
236 -207 -245 0
236 -237 -207 0
236 237 -245 0
237 -238 0
237 -239 0
238 -141 0
238 -186 0
239 -190 -240 0
239 -240 -205 0
239 190 -205 0
24 -14 -23 0
24 14 23 0
240 -195 -241 0
240 -241 -243 0
240 195 -243 0
241 242 0
242 -200 -30 0
242 200 30 0
243 244 0
244 -200 -23 0
244 200 23 0
245 -246 -251 0
245 -251 -252 0
245 246 -252 0
246 -205 0
246 -247 0
247 -141 0
247 -248 0
248 249 0
249 -188 -250 0
249 188 250 0
25 26 0
251 -208 -209 0
251 -209 -214 0
251 208 -214 0
252 -210 -253 0
252 210 253 0
254 -255 -257 0
254 -257 -281 0
254 255 -281 0
255 -256 0
255 -5 0
256 -186 0
256 -189 0
257 -208 -258 0
257 -258 -273 0
257 208 -273 0
258 -259 -262 0
258 -37 -259 0
258 37 -262 0
259 -260 -262 0
259 -34 -260 0
259 34 -262 0
26 -27 -23 0
26 27 23 0
260 -261 -23 0
260 261 23 0
262 -263 -264 0
262 -6 -263 0
262 6 -264 0
263 -260 -264 0
263 -34 -260 0
263 34 -264 0
264 -265 -269 0
264 -60 -265 0
264 60 -269 0
265 -260 -266 0
265 -29 -260 0
265 29 -266 0
266 -267 -269 0
266 -66 -267 0
266 66 -269 0
267 -260 -268 0
267 -69 -260 0
267 69 -268 0
268 -269 -270 0
268 -81 -269 0
268 81 -270 0
269 -261 -87 0
269 261 87 0
270 -269 -271 0
270 -89 -269 0
270 89 -271 0
271 -269 -272 0
271 -94 -269 0
271 94 -272 0
272 -273 -274 0
272 -98 -273 0
272 98 -274 0
273 -261 -30 0
273 261 30 0
274 -102 -275 0
274 -275 -276 0
274 102 -276 0
275 -105 -260 0
275 -260 -269 0
275 105 -269 0
276 -111 -269 0
276 -269 -277 0
276 111 -277 0
277 -114 -269 0
277 -269 -278 0
277 114 -278 0
278 -117 -273 0
278 -273 -279 0
278 117 -279 0
279 -120 -280 0
279 -280 -260 0
279 120 -260 0
28 29 0
280 -122 -260 0
280 -260 -269 0
280 122 -269 0
281 -282 -284 0
281 -284 -285 0
281 282 -285 0
282 -218 0
282 -283 0
283 -186 0
283 -239 0
284 -208 -262 0
284 -262 -273 0
284 208 -273 0
285 -286 -288 0
285 -288 -289 0
285 286 -289 0
286 -136 0
286 -287 0
287 -186 0
287 -205 0
288 -208 -264 0
288 -264 -273 0
288 208 -273 0
289 -290 -292 0
289 -292 -293 0
289 290 -293 0
29 -27 -30 0
29 27 30 0
290 -141 0
290 -291 0
291 -205 0
291 -248 0
292 -208 -269 0
292 -269 -273 0
292 208 -273 0
293 -261 -294 0
293 261 294 0
3 -189 0
3 -4 0
31 32 0
32 -27 -27 0
32 27 27 0
33 -34 -36 0
33 -36 -125 0
33 34 -125 0
34 -11 -35 0
34 -35 -29 0
34 11 -29 0
35 -21 -30 0
35 -30 -23 0
35 21 -23 0
36 -37 -56 0
36 -56 -57 0
36 37 -57 0
37 -38 0
37 -7 0
38 -11 -39 0
38 -39 -31 0
38 11 -31 0
39 -21 -40 0
39 -40 -48 0
39 21 -48 0
4 -186 0
4 -5 0
40 -11 -41 0
40 -41 -46 0
40 11 -46 0
41 -21 -42 0
41 -42 -44 0
41 21 -44 0
42 43 0
43 -23 -23 0
43 23 23 0
44 45 0
45 -23 -30 0
45 23 30 0
46 47 0
47 -23 -27 0
47 23 27 0
48 -11 -49 0
48 -49 -54 0
48 11 -54 0
49 -21 -50 0
49 -50 -52 0
49 21 -52 0
5 -33 -125 0
5 -6 -33 0
5 6 -125 0
50 51 0
51 -30 -23 0
51 30 23 0
52 53 0
53 -30 -30 0
53 30 30 0
54 55 0
55 -30 -27 0
55 30 27 0
56 -34 -42 0
56 -42 -57 0
56 34 -57 0
57 -58 -59 0
57 -6 -58 0
57 6 -59 0
58 -34 -42 0
58 -42 -59 0
58 34 -59 0
59 -60 -64 0
59 -64 -85 0
59 60 -85 0
6 -10 0
6 -7 0
60 -31 0
60 -61 0
61 62 0
62 -9 -63 0
62 9 63 0
64 -29 -42 0
64 -42 -65 0
64 29 -65 0
65 -66 -68 0
65 -68 -85 0
65 66 -85 0
66 -61 -67 0
67 -9 -23 0
67 9 23 0
68 -42 -80 0
68 -69 -42 0
68 69 -80 0
69 -70 -78 0
7 8 0
70 -71 -76 0
71 -72 -74 0
72 -73 -30 0
72 73 30 0
74 -75 -30 0
74 75 30 0
76 -77 -30 0
76 77 30 0
78 -79 -30 0
78 79 30 0
8 -9 -9 0
8 9 9 0
80 -81 -85 0
80 -85 -88 0
80 81 -88 0
81 -82 -78 0
82 -83 -76 0
83 -84 -74 0
84 -73 -23 0
84 73 23 0
85 86 0
86 -23 -87 0
86 23 87 0
88 -85 -93 0
88 -89 -85 0
88 89 -93 0
89 -90 -78 0
90 -91 -76 0
91 -72 -92 0
92 -75 -23 0
92 75 23 0
93 -85 -97 0
93 -94 -85 0
93 94 -97 0
94 -95 -78 0
95 -96 -76 0
96 -84 -92 0
97 -44 -101 0
97 -98 -44 0
97 98 -101 0
98 -99 -78 0
99 -71 -100 0
